c ind 33 32 31 30 29 28 27 26 25 24 23 22 21 20 19 18 17 16 15 14 13 12 11 10 9 8 7 6 5 4 3 2  0
c ind 65 64 63 62 61 60 59 58 57 56 55 54 53 52 51 50 49 48 47 46 45 44 43 42 41 40 39 38 37 36 35 34  0
p cnf 374 958
1 0
-374 0
-2 -280 -96 0
-2 280 96 0
2 -280 96 0
2 280 -96 0
-3 -129 0
-3 -97 130 0
3 -130 0
3 97 129 0
-4 -132 0
-4 -98 133 0
4 -133 0
4 98 132 0
-5 -135 0
-5 -99 136 0
5 -136 0
5 99 135 0
-6 -138 0
-6 -100 139 0
6 -139 0
6 100 138 0
-7 -141 0
-7 -101 142 0
7 -142 0
7 101 141 0
-8 -144 0
-8 -102 145 0
8 -145 0
8 102 144 0
-9 -147 0
-9 -103 148 0
9 -148 0
9 103 147 0
-10 -150 0
-10 -104 151 0
10 -151 0
10 104 150 0
-11 -153 0
-11 -105 154 0
11 -154 0
11 105 153 0
-12 -156 0
-12 -106 157 0
12 -157 0
12 106 156 0
-13 -159 0
-13 -107 160 0
13 -160 0
13 107 159 0
-14 -162 0
-14 -108 163 0
14 -163 0
14 108 162 0
-15 -165 0
-15 -109 166 0
15 -166 0
15 109 165 0
-16 -168 0
-16 -110 169 0
16 -169 0
16 110 168 0
-17 -171 0
-17 -111 172 0
17 -172 0
17 111 171 0
-18 -174 0
-18 -112 175 0
18 -175 0
18 112 174 0
-19 -177 0
-19 -113 178 0
19 -178 0
19 113 177 0
-20 -180 0
-20 -114 181 0
20 -181 0
20 114 180 0
-21 -183 0
-21 -115 184 0
21 -184 0
21 115 183 0
-22 -186 0
-22 -116 187 0
22 -187 0
22 116 186 0
-23 -189 0
-23 -117 190 0
23 -190 0
23 117 189 0
-24 -192 0
-24 -118 193 0
24 -193 0
24 118 192 0
-25 -195 0
-25 -119 196 0
25 -196 0
25 119 195 0
-26 -198 0
-26 -120 199 0
26 -199 0
26 120 198 0
-27 -201 0
-27 -121 202 0
27 -202 0
27 121 201 0
-28 -204 0
-28 -122 205 0
28 -205 0
28 122 204 0
-29 -207 0
-29 -123 208 0
29 -208 0
29 123 207 0
-30 -210 0
-30 -124 211 0
30 -211 0
30 124 210 0
-31 -213 0
-31 -126 214 0
31 -214 0
31 126 213 0
-32 -216 0
-32 -128 217 0
32 -217 0
32 128 216 0
-33 -342 0
-33 65 219 0
33 -219 0
33 -65 342 0
-34 -96 -95 0
-34 96 95 0
34 -96 95 0
34 96 -95 0
-35 -95 0
-35 -97 -94 0
-35 97 94 0
35 -94 95 0
35 -97 94 0
35 97 -94 0
-36 -94 0
-36 -98 -93 0
-36 98 93 0
36 -93 94 0
36 -98 93 0
36 98 -93 0
-37 -93 0
-37 -99 -92 0
-37 99 92 0
37 -92 93 0
37 -99 92 0
37 99 -92 0
-38 -92 0
-38 -100 -91 0
-38 100 91 0
38 -91 92 0
38 -100 91 0
38 100 -91 0
-39 -91 0
-39 -101 -90 0
-39 101 90 0
39 -90 91 0
39 -101 90 0
39 101 -90 0
-40 -90 0
-40 -102 -89 0
-40 102 89 0
40 -89 90 0
40 -102 89 0
40 102 -89 0
-41 -89 0
-41 -103 -88 0
-41 103 88 0
41 -88 89 0
41 -103 88 0
41 103 -88 0
-42 -88 0
-42 -104 -87 0
-42 104 87 0
42 -87 88 0
42 -104 87 0
42 104 -87 0
-43 -87 0
-43 -105 -86 0
-43 105 86 0
43 -86 87 0
43 -105 86 0
43 105 -86 0
-44 -86 0
-44 -106 -85 0
-44 106 85 0
44 -85 86 0
44 -106 85 0
44 106 -85 0
-45 -85 0
-45 -107 -84 0
-45 107 84 0
45 -84 85 0
45 -107 84 0
45 107 -84 0
-46 -84 0
-46 -108 -83 0
-46 108 83 0
46 -83 84 0
46 -108 83 0
46 108 -83 0
-47 -83 0
-47 -109 -82 0
-47 109 82 0
47 -82 83 0
47 -109 82 0
47 109 -82 0
-48 -82 0
-48 -110 -81 0
-48 110 81 0
48 -81 82 0
48 -110 81 0
48 110 -81 0
-49 -81 0
-49 -111 -80 0
-49 111 80 0
49 -80 81 0
49 -111 80 0
49 111 -80 0
-50 -80 0
-50 -112 -79 0
-50 112 79 0
50 -79 80 0
50 -112 79 0
50 112 -79 0
-51 -79 0
-51 -113 -78 0
-51 113 78 0
51 -78 79 0
51 -113 78 0
51 113 -78 0
-52 -78 0
-52 -114 -77 0
-52 114 77 0
52 -77 78 0
52 -114 77 0
52 114 -77 0
-53 -77 0
-53 -115 -76 0
-53 115 76 0
53 -76 77 0
53 -115 76 0
53 115 -76 0
-54 -76 0
-54 -116 -75 0
-54 116 75 0
54 -75 76 0
54 -116 75 0
54 116 -75 0
-55 -75 0
-55 -117 -74 0
-55 117 74 0
55 -74 75 0
55 -117 74 0
55 117 -74 0
-56 -74 0
-56 -118 -73 0
-56 118 73 0
56 -73 74 0
56 -118 73 0
56 118 -73 0
-57 -73 0
-57 -119 -72 0
-57 119 72 0
57 -72 73 0
57 -119 72 0
57 119 -72 0
-58 -72 0
-58 -120 -71 0
-58 120 71 0
58 -71 72 0
58 -120 71 0
58 120 -71 0
-59 -71 0
-59 -121 -70 0
-59 121 70 0
59 -70 71 0
59 -121 70 0
59 121 -70 0
-60 -70 0
-60 -122 -69 0
-60 122 69 0
60 -69 70 0
60 -122 69 0
60 122 -69 0
-61 -69 0
-61 -123 -68 0
-61 123 68 0
61 -68 69 0
61 -123 68 0
61 123 -68 0
-62 -68 0
-62 -124 67 0
-62 124 -67 0
62 67 68 0
62 -124 -67 0
62 124 67 0
-63 -125 0
-63 -66 67 0
63 -67 0
63 66 125 0
-64 -127 0
-64 -65 66 0
64 -66 0
64 65 127 0
-65 -127 0
-65 -219 0
65 -66 0
65 -342 0
-66 -125 0
-66 -128 0
66 -67 0
66 127 128 0
-67 -68 0
-67 -126 0
67 125 126 0
68 -69 0
69 -70 0
70 -71 0
71 -72 0
72 -73 0
73 -74 0
74 -75 0
75 -76 0
76 -77 0
77 -78 0
78 -79 0
79 -80 0
80 -81 0
81 -82 0
82 -83 0
83 -84 0
84 -85 0
85 -86 0
86 -87 0
87 -88 0
88 -89 0
89 -90 0
90 -91 0
91 -92 0
92 -93 0
93 -94 0
94 -95 0
-97 -129 0
97 -130 0
-98 -132 0
98 -133 0
-99 -135 0
99 -136 0
-100 -138 0
100 -139 0
-101 -141 0
101 -142 0
-102 -144 0
102 -145 0
-103 -147 0
103 -148 0
-104 -150 0
104 -151 0
-105 -153 0
105 -154 0
-106 -156 0
106 -157 0
-107 -159 0
107 -160 0
-108 -162 0
108 -163 0
-109 -165 0
109 -166 0
-110 -168 0
110 -169 0
-111 -171 0
111 -172 0
-112 -174 0
112 -175 0
-113 -177 0
113 -178 0
-114 -180 0
114 -181 0
-115 -183 0
115 -184 0
-116 -186 0
116 -187 0
-117 -189 0
117 -190 0
-118 -192 0
118 -193 0
-119 -195 0
119 -196 0
-120 -198 0
120 -199 0
-121 -201 0
121 -202 0
-122 -204 0
122 -205 0
-123 -207 0
123 -208 0
-124 -210 0
124 -211 0
-125 -126 0
-126 -213 0
126 -214 0
-127 -128 0
-128 -216 0
128 -217 0
-129 -131 0
129 130 131 0
-130 -131 0
-130 -279 0
130 278 279 0
-131 -282 0
-131 277 278 0
131 -278 0
131 -277 282 0
-132 -134 0
132 133 134 0
-133 -134 0
-133 -277 0
133 276 277 0
-134 -284 0
-134 275 276 0
134 -276 0
134 -275 284 0
-135 -137 0
135 136 137 0
-136 -137 0
-136 -275 0
136 274 275 0
-137 -286 0
-137 273 274 0
137 -274 0
137 -273 286 0
-138 -140 0
138 139 140 0
-139 -140 0
-139 -273 0
139 272 273 0
-140 -288 0
-140 271 272 0
140 -272 0
140 -271 288 0
-141 -143 0
141 142 143 0
-142 -143 0
-142 -271 0
142 270 271 0
-143 -290 0
-143 269 270 0
143 -270 0
143 -269 290 0
-144 -146 0
144 145 146 0
-145 -146 0
-145 -269 0
145 268 269 0
-146 -292 0
-146 267 268 0
146 -268 0
146 -267 292 0
-147 -149 0
147 148 149 0
-148 -149 0
-148 -267 0
148 266 267 0
-149 -294 0
-149 265 266 0
149 -266 0
149 -265 294 0
-150 -152 0
150 151 152 0
-151 -152 0
-151 -265 0
151 264 265 0
-152 -296 0
-152 263 264 0
152 -264 0
152 -263 296 0
-153 -155 0
153 154 155 0
-154 -155 0
-154 -263 0
154 262 263 0
-155 -298 0
-155 261 262 0
155 -262 0
155 -261 298 0
-156 -158 0
156 157 158 0
-157 -158 0
-157 -261 0
157 260 261 0
-158 -300 0
-158 259 260 0
158 -260 0
158 -259 300 0
-159 -161 0
159 160 161 0
-160 -161 0
-160 -259 0
160 258 259 0
-161 -302 0
-161 257 258 0
161 -258 0
161 -257 302 0
-162 -164 0
162 163 164 0
-163 -164 0
-163 -257 0
163 256 257 0
-164 -304 0
-164 255 256 0
164 -256 0
164 -255 304 0
-165 -167 0
165 166 167 0
-166 -167 0
-166 -255 0
166 254 255 0
-167 -306 0
-167 253 254 0
167 -254 0
167 -253 306 0
-168 -170 0
168 169 170 0
-169 -170 0
-169 -253 0
169 252 253 0
-170 -308 0
-170 251 252 0
170 -252 0
170 -251 308 0
-171 -173 0
171 172 173 0
-172 -173 0
-172 -251 0
172 250 251 0
-173 -310 0
-173 249 250 0
173 -250 0
173 -249 310 0
-174 -176 0
174 175 176 0
-175 -176 0
-175 -249 0
175 248 249 0
-176 -312 0
-176 247 248 0
176 -248 0
176 -247 312 0
-177 -179 0
177 178 179 0
-178 -179 0
-178 -247 0
178 246 247 0
-179 -314 0
-179 245 246 0
179 -246 0
179 -245 314 0
-180 -182 0
180 181 182 0
-181 -182 0
-181 -245 0
181 244 245 0
-182 -316 0
-182 243 244 0
182 -244 0
182 -243 316 0
-183 -185 0
183 184 185 0
-184 -185 0
-184 -243 0
184 242 243 0
-185 -318 0
-185 241 242 0
185 -242 0
185 -241 318 0
-186 -188 0
186 187 188 0
-187 -188 0
-187 -241 0
187 240 241 0
-188 -320 0
-188 239 240 0
188 -240 0
188 -239 320 0
-189 -191 0
189 190 191 0
-190 -191 0
-190 -239 0
190 238 239 0
-191 -322 0
-191 237 238 0
191 -238 0
191 -237 322 0
-192 -194 0
192 193 194 0
-193 -194 0
-193 -237 0
193 236 237 0
-194 -324 0
-194 235 236 0
194 -236 0
194 -235 324 0
-195 -197 0
195 196 197 0
-196 -197 0
-196 -235 0
196 234 235 0
-197 -326 0
-197 233 234 0
197 -234 0
197 -233 326 0
-198 -200 0
198 199 200 0
-199 -200 0
-199 -233 0
199 232 233 0
-200 -328 0
-200 231 232 0
200 -232 0
200 -231 328 0
-201 -203 0
201 202 203 0
-202 -203 0
-202 -231 0
202 230 231 0
-203 -330 0
-203 229 230 0
203 -230 0
203 -229 330 0
-204 -206 0
204 205 206 0
-205 -206 0
-205 -229 0
205 228 229 0
-206 -332 0
-206 227 228 0
206 -228 0
206 -227 332 0
-207 -209 0
207 208 209 0
-208 -209 0
-208 -227 0
208 226 227 0
-209 -334 0
-209 225 226 0
209 -226 0
209 -225 334 0
-210 -212 0
210 211 212 0
-211 -212 0
-211 -225 0
211 224 225 0
-212 -336 0
-212 223 224 0
212 -224 0
212 -223 336 0
-213 -215 0
213 214 215 0
-214 -215 0
-214 -223 0
214 222 223 0
-215 -338 0
-215 221 222 0
215 -222 0
215 -221 338 0
-216 -218 0
216 217 218 0
-217 -218 0
-217 -221 0
217 220 221 0
-218 -340 0
-218 -219 220 0
218 -220 0
218 219 340 0
-219 -340 0
-219 -343 0
219 -220 0
219 342 343 0
-220 -221 0
-220 -341 0
220 340 341 0
-221 -222 0
221 -338 0
-222 -223 0
-222 -339 0
222 338 339 0
-223 -224 0
223 -336 0
-224 -225 0
-224 -337 0
224 336 337 0
-225 -226 0
225 -334 0
-226 -227 0
-226 -335 0
226 334 335 0
-227 -228 0
227 -332 0
-228 -229 0
-228 -333 0
228 332 333 0
-229 -230 0
229 -330 0
-230 -231 0
-230 -331 0
230 330 331 0
-231 -232 0
231 -328 0
-232 -233 0
-232 -329 0
232 328 329 0
-233 -234 0
233 -326 0
-234 -235 0
-234 -327 0
234 326 327 0
-235 -236 0
235 -324 0
-236 -237 0
-236 -325 0
236 324 325 0
-237 -238 0
237 -322 0
-238 -239 0
-238 -323 0
238 322 323 0
-239 -240 0
239 -320 0
-240 -241 0
-240 -321 0
240 320 321 0
-241 -242 0
241 -318 0
-242 -243 0
-242 -319 0
242 318 319 0
-243 -244 0
243 -316 0
-244 -245 0
-244 -317 0
244 316 317 0
-245 -246 0
245 -314 0
-246 -247 0
-246 -315 0
246 314 315 0
-247 -248 0
247 -312 0
-248 -249 0
-248 -313 0
248 312 313 0
-249 -250 0
249 -310 0
-250 -251 0
-250 -311 0
250 310 311 0
-251 -252 0
251 -308 0
-252 -253 0
-252 -309 0
252 308 309 0
-253 -254 0
253 -306 0
-254 -255 0
-254 -307 0
254 306 307 0
-255 -256 0
255 -304 0
-256 -257 0
-256 -305 0
256 304 305 0
-257 -258 0
257 -302 0
-258 -259 0
-258 -303 0
258 302 303 0
-259 -260 0
259 -300 0
-260 -261 0
-260 -301 0
260 300 301 0
-261 -262 0
261 -298 0
-262 -263 0
-262 -299 0
262 298 299 0
-263 -264 0
263 -296 0
-264 -265 0
-264 -297 0
264 296 297 0
-265 -266 0
265 -294 0
-266 -267 0
-266 -295 0
266 294 295 0
-267 -268 0
267 -292 0
-268 -269 0
-268 -293 0
268 292 293 0
-269 -270 0
269 -290 0
-270 -271 0
-270 -291 0
270 290 291 0
-271 -272 0
271 -288 0
-272 -273 0
-272 -289 0
272 288 289 0
-273 -274 0
273 -286 0
-274 -275 0
-274 -287 0
274 286 287 0
-275 -276 0
275 -284 0
-276 -277 0
-276 -285 0
276 284 285 0
-277 -278 0
277 -282 0
-278 -279 0
-278 -283 0
278 282 283 0
-279 -281 280 0
-279 281 -280 0
279 -281 -280 0
279 281 280 0
281 373 0
-282 -283 0
-283 -344 0
283 285 344 0
-284 -285 0
-285 -344 0
-286 -287 0
-287 -345 0
287 -344 345 0
-288 -289 0
-289 -346 0
289 -345 346 0
-290 -291 0
-291 -347 0
291 -346 347 0
-292 -293 0
-293 -348 0
293 -347 348 0
-294 -295 0
-295 -349 0
295 -348 349 0
-296 -297 0
-297 -350 0
297 -349 350 0
-298 -299 0
-299 -351 0
299 -350 351 0
-300 -301 0
-301 -352 0
301 -351 352 0
-302 -303 0
-303 -353 0
303 -352 353 0
-304 -305 0
-305 -354 0
305 -353 354 0
-306 -307 0
-307 -355 0
307 -354 355 0
-308 -309 0
-309 -356 0
309 -355 356 0
-310 -311 0
-311 -357 0
311 -356 357 0
-312 -313 0
-313 -358 0
313 -357 358 0
-314 -315 0
-315 -359 0
315 -358 359 0
-316 -317 0
-317 -360 0
317 -359 360 0
-318 -319 0
-319 -361 0
319 -360 361 0
-320 -321 0
-321 -362 0
321 -361 362 0
-322 -323 0
-323 -363 0
323 -362 363 0
-324 -325 0
-325 -364 0
325 -363 364 0
-326 -327 0
-327 -365 0
327 -364 365 0
-328 -329 0
-329 -366 0
329 -365 366 0
-330 -331 0
-331 -367 0
331 -366 367 0
-332 -333 0
-333 -368 0
333 -367 368 0
-334 -335 0
-335 -369 0
335 -368 369 0
-336 -337 0
-337 -370 0
337 -369 370 0
-338 -339 0
-339 -371 0
339 -370 371 0
-340 -341 0
-341 -372 0
341 -371 372 0
-342 -343 0
-343 -373 0
343 -372 373 0
344 -345 0
345 -346 0
346 -347 0
347 -348 0
348 -349 0
349 -350 0
350 -351 0
351 -352 0
352 -353 0
353 -354 0
354 -355 0
355 -356 0
356 -357 0
357 -358 0
358 -359 0
359 -360 0
360 -361 0
361 -362 0
362 -363 0
363 -364 0
364 -365 0
365 -366 0
366 -367 0
367 -368 0
368 -369 0
369 -370 0
370 -371 0
371 -372 0
372 -373 0
